NAME : 10_3_3_3_(23).dat
COMMENT : Henke, Speranza, Wäscher, 2015
TYPE : MCVRP
DIMENSION : 11
EDGE_WEIGHT_TYPE : DISTANCE_MATRIX
CAPACITY : 1000
VEHICLES : 2
PRODUCT TYPES : 3
COMPARTMENTS : 3
NODE_COORD_SECTION
1 50 50
2 96.78 43.82
3 66.26 21.06
4 22.04 8.71
5 80.16 74.47
6 64.96 81.87
7 10.14 42.87
8 2.91 40.95
9 2.44 9.34
10 83.46 10.42
11 45.92 84.41
DEMAND_SECTION
1 0 0 0
2 100 16 54
3 104 18 44
4 96 69 34
5 89 6 0
6 97 88 16
7 18 84 41
8 109 16 1
9 6 23 22
10 27 24 19
11 4 45 28
DEPOT_SECTION
1
EOF